#  This is the control script for LAMMPS


#-------------------------------------------------------------------------------
# Stage 1.1: Initialize LAMMPS run for 3-d periodic
#-------------------------------------------------------------------------------

units			real
boundary		p p p
atom_style		full

kspace_style		ewald 0.00001
pair_style		lj/cut/coul/long 9.0
pair_modify             mix geometric
pair_modify		tail yes
bond_style		harmonic
angle_style		harmonic
dihedral_style		opls
improper_style		class2
special_bonds		lj/coul 0.0 0.0 0.5
pair_modify		mix geometric

box                     tilt large
read_data  structure.dat

include			parameters.dat

neighbor		2.0 bin
neigh_modify		delay 0 every 1 check yes

variable		R		equal 0.00198722
variable		sysvol		equal vol
variable		sysmass		equal mass(all)/6.0221367e+023
variable		sysdensity	equal v_sysmass/v_sysvol/1.0e-24
variable		coulomb		equal ecoul+elong
variable		etotal		equal etotal
variable		pe		equal pe
variable		ke		equal ke
variable		evdwl		equal evdwl
variable		epair		equal epair
variable		ebond		equal ebond
variable		eangle		equal eangle
variable		edihed		equal edihed
variable		eimp		equal eimp
variable		lx		equal lx
variable		ly		equal ly
variable		lz		equal lz
variable		Nthermo		equal 0
variable		cella		equal lx
variable		cellb		equal sqrt(ly*ly+xy*xy)
variable		cellc		equal sqrt(lz*lz+xz*xz+yz*yz)
variable		cellalpha	equal acos((xy*xz+ly*yz)/(v_cellb*v_cellc))
variable		cellbeta	equal acos(xz/v_cellc)
variable		cellgamma	equal acos(xy/v_cellb)
variable		p		equal press
variable		pxx		equal pxx
variable		pyy		equal pyy
variable		pzz		equal pzz
variable		pyz		equal pyz
variable		pxz		equal pxz
variable		pxy		equal pxy
variable		sxx		equal -pxx
variable		syy		equal -pyy
variable		szz		equal -pzz
variable		syz		equal -pyz
variable		sxz		equal -pxz
variable		sxy		equal -pxy
variable		fmax		equal fmax
variable	        fnorm		equal fnorm
variable		time equal step*dt+0.000001
variable		surfacetension equal 0.5*v_lz*(0.5*(v_sxx+v_syy)-v_szz)
variable Temperature equal temp
variable Tenergy equal etotal
variable Kenergy equal ke
variable Penergy equal pe
thermo                  1000
thermo_style		custom step temp press pe ke vol v_sysdensity ebond eangle edihed eimp evdwl ecoul etail elong 
thermo_modify		flush yes


#
# Set up the fixed and movable groups
#

#-------------------------------------------------------------------------------
# Stage 1.2: Minimization
#-------------------------------------------------------------------------------

#min_style		cg
#thermo			1000
#minimize		0.0 1.0 1000 10000
#-------------------------------------------------------------------------------
# Stage 1.3: NVT+NPT code
#-------------------------------------------------------------------------------

dump                    sci all custom 10000 data.dump id type mass q x y z
dump_modify sci sort id
timestep        1.0
restart 1000000 restart.*
fix		press all ave/time 10 1000 10000 v_Temperature v_Tenergy v_Kenergy v_Penergy  v_sysdensity file data.energy
fix             1 all npt temp 600.0 600.0 100.0 x 1.0 1.0 1000 y 1.0 1.0 1000 z 1.0 1.0 1000
run 3000000
unfix 1
#unfix 1
fix             1 all npt temp 600.0 300.0 100.0 x 1.0 1.0 1000 y 1.0 1.0 1000 z 1.0 1.0 1000   
run 1000000
unfix 1
fix             1 all npt temp 300.0 300.0 100.0 x 1.0 1.0 1000 y 1.0 1.0 1000 z 1.0 1.0 1000 
run 5000000
write_data final.data

